c File: flat50_3_0.col
c
c SOURCE: Joseph Culberson (joe@cs.ualberta.ca)
c DESCRIPTION: Quasi-random coloring problem
c              generated with flatness = 0
c                             probability = 0.139
c                             known coloring = 3
c                             random seed = 1540
c              Creation Date:  Tue Jun  9 12:11:48 1998
c Maximum degree = 8 Minimum degree = 1
c p edge 50 115
c cnf created by edge2cnf
p cnf 150 545
-1 -2 0
-1 -3 0
-2 -3 0
1 2 3 0
-4 -5 0
-4 -6 0
-5 -6 0
4 5 6 0
-7 -8 0
-7 -9 0
-8 -9 0
7 8 9 0
-10 -11 0
-10 -12 0
-11 -12 0
10 11 12 0
-13 -14 0
-13 -15 0
-14 -15 0
13 14 15 0
-16 -17 0
-16 -18 0
-17 -18 0
16 17 18 0
-19 -20 0
-19 -21 0
-20 -21 0
19 20 21 0
-22 -23 0
-22 -24 0
-23 -24 0
22 23 24 0
-25 -26 0
-25 -27 0
-26 -27 0
25 26 27 0
-28 -29 0
-28 -30 0
-29 -30 0
28 29 30 0
-31 -32 0
-31 -33 0
-32 -33 0
31 32 33 0
-34 -35 0
-34 -36 0
-35 -36 0
34 35 36 0
-37 -38 0
-37 -39 0
-38 -39 0
37 38 39 0
-40 -41 0
-40 -42 0
-41 -42 0
40 41 42 0
-43 -44 0
-43 -45 0
-44 -45 0
43 44 45 0
-46 -47 0
-46 -48 0
-47 -48 0
46 47 48 0
-49 -50 0
-49 -51 0
-50 -51 0
49 50 51 0
-52 -53 0
-52 -54 0
-53 -54 0
52 53 54 0
-55 -56 0
-55 -57 0
-56 -57 0
55 56 57 0
-58 -59 0
-58 -60 0
-59 -60 0
58 59 60 0
-61 -62 0
-61 -63 0
-62 -63 0
61 62 63 0
-64 -65 0
-64 -66 0
-65 -66 0
64 65 66 0
-67 -68 0
-67 -69 0
-68 -69 0
67 68 69 0
-70 -71 0
-70 -72 0
-71 -72 0
70 71 72 0
-73 -74 0
-73 -75 0
-74 -75 0
73 74 75 0
-76 -77 0
-76 -78 0
-77 -78 0
76 77 78 0
-79 -80 0
-79 -81 0
-80 -81 0
79 80 81 0
-82 -83 0
-82 -84 0
-83 -84 0
82 83 84 0
-85 -86 0
-85 -87 0
-86 -87 0
85 86 87 0
-88 -89 0
-88 -90 0
-89 -90 0
88 89 90 0
-91 -92 0
-91 -93 0
-92 -93 0
91 92 93 0
-94 -95 0
-94 -96 0
-95 -96 0
94 95 96 0
-97 -98 0
-97 -99 0
-98 -99 0
97 98 99 0
-100 -101 0
-100 -102 0
-101 -102 0
100 101 102 0
-103 -104 0
-103 -105 0
-104 -105 0
103 104 105 0
-106 -107 0
-106 -108 0
-107 -108 0
106 107 108 0
-109 -110 0
-109 -111 0
-110 -111 0
109 110 111 0
-112 -113 0
-112 -114 0
-113 -114 0
112 113 114 0
-115 -116 0
-115 -117 0
-116 -117 0
115 116 117 0
-118 -119 0
-118 -120 0
-119 -120 0
118 119 120 0
-121 -122 0
-121 -123 0
-122 -123 0
121 122 123 0
-124 -125 0
-124 -126 0
-125 -126 0
124 125 126 0
-127 -128 0
-127 -129 0
-128 -129 0
127 128 129 0
-130 -131 0
-130 -132 0
-131 -132 0
130 131 132 0
-133 -134 0
-133 -135 0
-134 -135 0
133 134 135 0
-136 -137 0
-136 -138 0
-137 -138 0
136 137 138 0
-139 -140 0
-139 -141 0
-140 -141 0
139 140 141 0
-142 -143 0
-142 -144 0
-143 -144 0
142 143 144 0
-145 -146 0
-145 -147 0
-146 -147 0
145 146 147 0
-148 -149 0
-148 -150 0
-149 -150 0
148 149 150 0
-67 -1 0
-68 -2 0
-69 -3 0
-70 -1 0
-71 -2 0
-72 -3 0
-76 -1 0
-77 -2 0
-78 -3 0
-85 -1 0
-86 -2 0
-87 -3 0
-112 -1 0
-113 -2 0
-114 -3 0
-136 -1 0
-137 -2 0
-138 -3 0
-145 -1 0
-146 -2 0
-147 -3 0
-148 -1 0
-149 -2 0
-150 -3 0
-88 -4 0
-89 -5 0
-90 -6 0
-91 -4 0
-92 -5 0
-93 -6 0
-136 -4 0
-137 -5 0
-138 -6 0
-142 -4 0
-143 -5 0
-144 -6 0
-100 -7 0
-101 -8 0
-102 -9 0
-103 -7 0
-104 -8 0
-105 -9 0
-133 -7 0
-134 -8 0
-135 -9 0
-55 -10 0
-56 -11 0
-57 -12 0
-79 -10 0
-80 -11 0
-81 -12 0
-82 -10 0
-83 -11 0
-84 -12 0
-94 -10 0
-95 -11 0
-96 -12 0
-109 -10 0
-110 -11 0
-111 -12 0
-145 -10 0
-146 -11 0
-147 -12 0
-61 -13 0
-62 -14 0
-63 -15 0
-76 -13 0
-77 -14 0
-78 -15 0
-115 -13 0
-116 -14 0
-117 -15 0
-121 -13 0
-122 -14 0
-123 -15 0
-124 -13 0
-125 -14 0
-126 -15 0
-142 -13 0
-143 -14 0
-144 -15 0
-70 -16 0
-71 -17 0
-72 -18 0
-127 -16 0
-128 -17 0
-129 -18 0
-139 -16 0
-140 -17 0
-141 -18 0
-73 -19 0
-74 -20 0
-75 -21 0
-88 -19 0
-89 -20 0
-90 -21 0
-103 -19 0
-104 -20 0
-105 -21 0
-133 -19 0
-134 -20 0
-135 -21 0
-139 -19 0
-140 -20 0
-141 -21 0
-64 -22 0
-65 -23 0
-66 -24 0
-79 -22 0
-80 -23 0
-81 -24 0
-94 -22 0
-95 -23 0
-96 -24 0
-97 -22 0
-98 -23 0
-99 -24 0
-115 -22 0
-116 -23 0
-117 -24 0
-130 -22 0
-131 -23 0
-132 -24 0
-52 -25 0
-53 -26 0
-54 -27 0
-79 -25 0
-80 -26 0
-81 -27 0
-88 -25 0
-89 -26 0
-90 -27 0
-91 -25 0
-92 -26 0
-93 -27 0
-115 -25 0
-116 -26 0
-117 -27 0
-124 -25 0
-125 -26 0
-126 -27 0
-139 -25 0
-140 -26 0
-141 -27 0
-61 -28 0
-62 -29 0
-63 -30 0
-70 -28 0
-71 -29 0
-72 -30 0
-115 -28 0
-116 -29 0
-117 -30 0
-136 -28 0
-137 -29 0
-138 -30 0
-82 -31 0
-83 -32 0
-84 -33 0
-85 -31 0
-86 -32 0
-87 -33 0
-121 -31 0
-122 -32 0
-123 -33 0
-133 -31 0
-134 -32 0
-135 -33 0
-139 -31 0
-140 -32 0
-141 -33 0
-76 -34 0
-77 -35 0
-78 -36 0
-91 -34 0
-92 -35 0
-93 -36 0
-58 -37 0
-59 -38 0
-60 -39 0
-79 -37 0
-80 -38 0
-81 -39 0
-85 -37 0
-86 -38 0
-87 -39 0
-94 -37 0
-95 -38 0
-96 -39 0
-130 -37 0
-131 -38 0
-132 -39 0
-58 -40 0
-59 -41 0
-60 -42 0
-112 -40 0
-113 -41 0
-114 -42 0
-136 -40 0
-137 -41 0
-138 -42 0
-142 -40 0
-143 -41 0
-144 -42 0
-55 -43 0
-56 -44 0
-57 -45 0
-121 -43 0
-122 -44 0
-123 -45 0
-127 -43 0
-128 -44 0
-129 -45 0
-130 -46 0
-131 -47 0
-132 -48 0
-61 -49 0
-62 -50 0
-63 -51 0
-70 -49 0
-71 -50 0
-72 -51 0
-88 -49 0
-89 -50 0
-90 -51 0
-91 -49 0
-92 -50 0
-93 -51 0
-133 -49 0
-134 -50 0
-135 -51 0
-121 -52 0
-122 -53 0
-123 -54 0
-130 -52 0
-131 -53 0
-132 -54 0
-139 -52 0
-140 -53 0
-141 -54 0
-148 -52 0
-149 -53 0
-150 -54 0
-118 -55 0
-119 -56 0
-120 -57 0
-142 -55 0
-143 -56 0
-144 -57 0
-112 -58 0
-113 -59 0
-114 -60 0
-133 -58 0
-134 -59 0
-135 -60 0
-106 -61 0
-107 -62 0
-108 -63 0
-109 -61 0
-110 -62 0
-111 -63 0
-112 -61 0
-113 -62 0
-114 -63 0
-148 -61 0
-149 -62 0
-150 -63 0
-127 -64 0
-128 -65 0
-129 -66 0
-130 -64 0
-131 -65 0
-132 -66 0
-142 -64 0
-143 -65 0
-144 -66 0
-106 -67 0
-107 -68 0
-108 -69 0
-109 -67 0
-110 -68 0
-111 -69 0
-148 -70 0
-149 -71 0
-150 -72 0
-136 -73 0
-137 -74 0
-138 -75 0
-124 -76 0
-125 -77 0
-126 -78 0
-139 -76 0
-140 -77 0
-141 -78 0
-136 -79 0
-137 -80 0
-138 -81 0
-103 -82 0
-104 -83 0
-105 -84 0
-115 -82 0
-116 -83 0
-117 -84 0
-127 -82 0
-128 -83 0
-129 -84 0
-136 -82 0
-137 -83 0
-138 -84 0
-115 -85 0
-116 -86 0
-117 -87 0
-133 -85 0
-134 -86 0
-135 -87 0
-133 -88 0
-134 -89 0
-135 -90 0
-145 -88 0
-146 -89 0
-147 -90 0
-106 -91 0
-107 -92 0
-108 -93 0
-115 -91 0
-116 -92 0
-117 -93 0
-118 -91 0
-119 -92 0
-120 -93 0
-145 -91 0
-146 -92 0
-147 -93 0
-121 -94 0
-122 -95 0
-123 -96 0
-124 -94 0
-125 -95 0
-126 -96 0
-133 -97 0
-134 -98 0
-135 -99 0
-142 -97 0
-143 -98 0
-144 -99 0
